CMD:
./solvers/bin/cadical --plain --no-reduce -t 1600 ./data/cnfs//rast-p04/rast-p04.36.cnf

c --- [ banner ] -------------------------------------------------------------
c 
c CaDiCaL SAT Solver
c Copyright (c) 2016-2024
c A. Biere, M. Fleury, N. Froleyks, K. Fazekas, F. Pollitt, T. Faller
c JKU Linz, University of Freiburg, TU Wien
c 
c Version 2.1.3 5296d3d2a9bf48c154ab2acb5e44625776d821bf
c g++ (Gentoo 12.3.1_p20230526 p2) 12.3.1 20230526 -Wall -Wextra -O3 -DNDEBUG
c Sat Aug 9 07:26:21 PDT 2025 Linux cedar2.int.cedar.computecanada.ca 5.14.0-362.24.2.el9_3.x86_64 x86_64
c 
c --- [ limit ] --------------------------------------------------------------
c 
c setting time limit to 1600 seconds real time (due to '-t 1600')
c 
c --- [ parsing input ] ------------------------------------------------------
c 
c reading DIMACS file from './data/cnfs//rast-p04/rast-p04.36.cnf'
c opening file to read './data/cnfs//rast-p04/rast-p04.36.cnf'
c found 'p cnf 2004224 5967391' header
c parsed 5967391 clauses in 1.04 seconds process time
c 
c --- [ options ] ------------------------------------------------------------
c 
c   --compact=false                (different from default 'true')
c   --decompose=false              (different from default 'true')
c   --deduplicate=false            (different from default 'true')
c   --elim=false                   (different from default 'true')
c   --probe=false                  (different from default 'true')
c   --reduce=false                 (different from default 'true')
c   --subsume=false                (different from default 'true')
c   --ternary=false                (different from default 'true')
c   --transred=false               (different from default 'true')
c   --vivify=false                 (different from default 'true')
c 
c --- [ solving ] ------------------------------------------------------------
c 
c time measured in process time since initialization
c 
c  seconds   reductions  redundant   irredundant
c          MB    restarts       trail         variables
c           level   conflicts       glue            remaining
c 
c *  1.04 863  0 0   0    0    0  0% 0 5561237 1722661 86%
c {  1.45 880  0 0   0    0    0  0% 0 5561237 1722661 86%
c i  1.48 881 468 0   0    4    2 17% 2 5561237 1722658 86%
c i  1.48 881 482 0   0    5    2 18% 1 5561237 1722041 86%
c i  1.50 881 523 0   0   23   18 20% 1 5561237 1722017 86%
c i  1.51 881 526 0   0   31   25 20% 1 5561237 1722009 86%
c i  1.51 881 526 0   0   33   25 20% 1 5561237 1721986 86%
c i  1.51 881 526 0   0   35   26 20% 1 5561237 1721976 86%
c i  1.51 881 526 0   0   37   27 20% 1 5561237 1721966 86%
c i  1.51 881 526 0   0   39   28 20% 1 5561237 1721956 86%
c i  1.51 881 526 0   0   41   29 20% 1 5561237 1721946 86%
c i  1.51 881 526 0   0   43   30 19% 1 5561237 1721936 86%
c i  1.51 881 526 0   0   45   31 19% 1 5561237 1721926 86%
c i  1.52 881 526 0   0   47   32 19% 1 5561237 1721916 86%
c i  1.52 881 526 0   0   49   33 19% 1 5561237 1721906 86%
c i  1.52 881 526 0   0   51   34 19% 1 5561237 1721896 86%
c i  1.52 881 526 0   0   53   35 19% 1 5561237 1721886 86%
c i  1.52 881 525 0   0   55   36 19% 1 5561237 1721876 86%
c i  1.52 881 525 0   0   57   37 19% 1 5561237 1721866 86%
c i  1.52 881 525 0   0   59   38 19% 1 5561237 1721856 86%
c 
c  seconds    reductions  redundant   irredundant
c          MB     restarts       trail         variables
c            level   conflicts       glue            remaining
c 
c i  1.52 881 525 0   0   61   39 19% 1 5561237 1721846 86%
c i  1.52 881 524 0   0   63   40 19% 1 5561237 1721836 86%
c i  1.52 881 524 0   0   65   41 19% 1 5561237 1721826 86%
c i  1.53 881 524 0   0   67   42 19% 1 5561237 1721816 86%
c i  1.53 881 524 0   0   69   43 19% 1 5561237 1721806 86%
c i  1.53 881 523 0   0   71   44 18% 1 5561237 1721796 86%
c i  1.53 881 523 0   0   73   45 18% 1 5561237 1721786 86%
c i  1.53 881 522 0   0   75   46 18% 1 5561237 1721776 86%
c i  1.53 881 522 0   0   77   47 18% 1 5561237 1721766 86%
c i  1.54 881 522 0   0   80   48 18% 1 5561237 1721756 86%
c i  1.82 881 434 0   3  116   82 20% 1 5561237 1721755 86%
c i  1.83 881 432 0   3  117   82 20% 1 5561237 1721754 86%
c i  1.95 881 434 0   5  135   87 23% 1 5561237 1721726 86%
c }  1.96 881 435 0   6  137   87 23% 1 5561237 1721529 86%
c 0  1.96 881 435 0   6  137   87 23% 1 5561237 1721529 86%
c 
c --- [ result ] -------------------------------------------------------------
c 
s UNSATISFIABLE
c 
c --- [ run-time profiling ] -------------------------------------------------
c 
c process time taken by individual solving procedures
c (percentage relative to process time for solving)
c 
c         1.04  113.29% parse
c         0.92   99.98% search
c         0.51   55.92% unstable
c         0.41   44.05% lucky
c         0.00    0.00% simplify
c   =================================
c         0.92   46.87% solve
c 
c last line shows process time for solving
c (percentage relative to total process time)
c 
c --- [ statistics ] ---------------------------------------------------------
c 
c chronological:                87        63.50 %  of conflicts
c conflicts:                   137       148.80    per second
c decisions:                  2422      2630.59    per second
c fixed:                    280130        13.98 %  of all variables
c learned:                     132        96.35 %  per conflict
c learned_lits:                701       100.00 %  learned literals
c minimized:                     0         0.00 %  learned literals
c shrunken:                     33         4.71 %  learned literals
c minishrunken:                  3         0.43 %  learned literals
c otfs:                          6         4.38 %  of conflict
c propagations:            4300653         4.67 M  per second
c restarts:                      6        22.83    interval
c strengthened:                  6         0.00 %  of all clauses
c 
c seconds are measured in process time for solving
c 
c --- [ resources ] ----------------------------------------------------------
c 
c total process time since initialization:         1.96    seconds
c total real time since initialization:            1.98    seconds
c maximum resident set size of process:          879.35    MB
c 
c --- [ shutting down ] ------------------------------------------------------
c 
c exit 20
